c turning on binary mode checking
c parsing input formula with 259840 variables and 1039929 clauses
c finished parsing, read 20758340 bytes from proof file
c detected empty clause; start verification via backward checking
c 9572 of 1039929 clauses in core                            
c 3763 of 517772 lemmas in core using 115812 resolution steps
c 0 RAT lemmas in core; 1081 redundant literals in core lemmas
s VERIFIED
c verification time: 3.090 seconds
